(set-logic QF_S)
(declare-fun var0 () String)
(assert (str.in.re var0 (re.++ (re.* (re.union (str.to.re "00") (str.to.re "111"))) (re.++ (re.union (re.union (str.to.re "22") (str.to.re "33")) (re.union (str.to.re "444") (str.to.re "55"))) (re.++ (re.* (re.+ (str.to.re "666"))) (re.++ (re.* (re.+ (str.to.re "7"))) (re.++ (re.union (re.+ (str.to.re "8")) (re.+ (str.to.re "999"))) (re.++ (re.+ (re.* (str.to.re "aa"))) (re.++ (re.union (re.* (str.to.re "bb")) (re.* (str.to.re "cc"))) (re.++ (re.+ (re.* (str.to.re "dd"))) (re.++ (re.union (re.* (str.to.re "ee")) (re.* (str.to.re "ff"))) (re.++ (re.+ (re.+ (str.to.re "ggg"))) (re.++ (re.union (re.+ (str.to.re "hhh")) (re.+ (str.to.re "i"))) (re.++ (re.+ (re.* (str.to.re "jjj"))) (re.++ (re.union (re.* (str.to.re "kk")) (re.* (str.to.re "lll"))) (re.++ (re.+ (re.* (str.to.re "m"))) (re.++ (re.+ (re.union (str.to.re "nn") (str.to.re "o"))) (re.++ (re.+ (re.+ (str.to.re "ppp"))) (re.++ (re.union (re.+ (str.to.re "qq")) (re.+ (str.to.re "rrr"))) (re.++ (re.* (re.+ (str.to.re "ss"))) (re.++ (re.* (re.+ (str.to.re "t"))) (re.++ (re.+ (re.union (str.to.re "uu") (str.to.re "vvv"))) (re.++ (re.+ (re.union (str.to.re "www") (str.to.re "x"))) (re.++ (re.union (re.union (str.to.re "y") (str.to.re "z")) (re.union (str.to.re "AAA") (str.to.re "B"))) (re.++ (re.+ (re.+ (str.to.re "CCC"))) (re.++ (re.+ (re.union (str.to.re "D") (str.to.re "EEE"))) (re.++ (re.+ (re.+ (str.to.re "F"))) (re.++ (re.union (re.* (str.to.re "G")) (re.* (str.to.re "HHH"))) (re.++ (re.+ (re.union (str.to.re "III") (str.to.re "JJJ"))) (re.++ (re.union (re.* (str.to.re "K")) (re.* (str.to.re "LL"))) (re.++ (re.* (re.* (str.to.re "MM"))) (re.++ (re.+ (re.union (str.to.re "NN") (str.to.re "OOO"))) (re.++ (re.union (re.* (str.to.re "P")) (re.* (str.to.re "QQQ"))) (re.++ (re.union (re.union (str.to.re "RRR") (str.to.re "S")) (re.union (str.to.re "T") (str.to.re "U"))) (re.++ (re.union (re.union (str.to.re "VVV") (str.to.re "WWW")) (re.union (str.to.re "XXX") (str.to.re "YYY"))) (re.++ (re.* (re.union (str.to.re "ZZZ") (str.to.re "!"))) (re.++ (re.* (re.union (str.to.re """") (str.to.re "###"))) (re.++ (re.* (re.union (str.to.re "$$") (str.to.re "%%"))) (re.++ (re.union (re.+ (str.to.re "&&&")) (re.+ (str.to.re "'"))) (re.++ (re.union (re.+ (str.to.re "(")) (re.+ (str.to.re ")))"))) (re.++ (re.+ (re.* (str.to.re "*"))) (re.++ (re.union (re.+ (str.to.re "+++")) (re.+ (str.to.re ","))) (re.++ (re.union (re.+ (str.to.re "---")) (re.+ (str.to.re ".."))) (re.++ (re.union (re.* (str.to.re "//")) (re.* (str.to.re ":::"))) (re.++ (re.+ (re.* (str.to.re ";;;"))) (re.++ (re.* (re.+ (str.to.re "<<"))) (re.++ (re.union (re.union (str.to.re "==") (str.to.re ">>>")) (re.union (str.to.re "?") (str.to.re "@"))) (re.++ (re.* (re.union (str.to.re "[[") (str.to.re "\\"))) (re.++ (re.* (re.union (str.to.re "]") (str.to.re "^"))) (re.++ (re.* (re.union (str.to.re "__") (str.to.re "```"))) (re.++ (re.* (re.+ (str.to.re "{{{"))) (re.++ (re.union (re.* (str.to.re "|")) (re.* (str.to.re "}}"))) (re.++ (re.+ (re.* (str.to.re "~"))) (re.++ (re.union (re.* (str.to.re "0")) (re.* (str.to.re "11"))) (re.++ (re.* (re.* (str.to.re "222"))) (re.++ (re.union (re.* (str.to.re "3")) (re.* (str.to.re "44"))) (re.++ (re.+ (re.union (str.to.re "5") (str.to.re "6"))) (re.++ (re.* (re.union (str.to.re "7") (str.to.re "88"))) (re.++ (re.union (re.* (str.to.re "999")) (re.* (str.to.re "aaa"))) (re.++ (re.+ (re.* (str.to.re "bbb"))) (re.++ (re.* (re.union (str.to.re "ccc") (str.to.re "dd"))) (re.++ (re.* (re.* (str.to.re "ee"))) (re.++ (re.union (re.* (str.to.re "f")) (re.* (str.to.re "ggg"))) (re.++ (re.union (re.* (str.to.re "hh")) (re.* (str.to.re "iii"))) (re.++ (re.union (re.union (str.to.re "jj") (str.to.re "k")) (re.union (str.to.re "ll") (str.to.re "mm"))) (re.++ (re.union (re.union (str.to.re "nn") (str.to.re "ooo")) (re.union (str.to.re "pp") (str.to.re "qqq"))) (re.++ (re.union (re.* (str.to.re "rr")) (re.* (str.to.re "s"))) (re.++ (re.union (re.union (str.to.re "ttt") (str.to.re "u")) (re.union (str.to.re "v") (str.to.re "www"))) (re.++ (re.* (re.+ (str.to.re "xx"))) (re.++ (re.+ (re.+ (str.to.re "y"))) (re.++ (re.* (re.+ (str.to.re "z"))) (re.++ (re.* (re.* (str.to.re "AA"))) (re.++ (re.* (re.+ (str.to.re "B"))) (re.++ (re.union (re.union (str.to.re "C") (str.to.re "DD")) (re.union (str.to.re "EEE") (str.to.re "F"))) (re.++ (re.+ (re.* (str.to.re "GGG"))) (re.++ (re.* (re.+ (str.to.re "HHH"))) (re.++ (re.union (re.+ (str.to.re "I")) (re.+ (str.to.re "J"))) (re.++ (re.+ (re.* (str.to.re "KK"))) (re.++ (re.* (re.union (str.to.re "LL") (str.to.re "M"))) (re.++ (re.union (re.* (str.to.re "NN")) (re.* (str.to.re "O"))) (re.++ (re.* (re.union (str.to.re "P") (str.to.re "QQ"))) (re.++ (re.union (re.* (str.to.re "R")) (re.* (str.to.re "SS"))) (re.++ (re.* (re.* (str.to.re "T"))) (re.++ (re.+ (re.+ (str.to.re "U"))) (re.++ (re.union (re.union (str.to.re "VV") (str.to.re "WWW")) (re.union (str.to.re "XXX") (str.to.re "YY"))) (re.++ (re.* (re.union (str.to.re "ZZ") (str.to.re "!!!"))) (re.++ (re.union (re.+ (str.to.re """""""")) (re.+ (str.to.re "#"))) (re.++ (re.+ (re.union (str.to.re "$") (str.to.re "%%"))) (re.++ (re.+ (re.union (str.to.re "&&") (str.to.re "'''"))) (re.++ (re.* (re.* (str.to.re "((("))) (re.++ (re.* (re.union (str.to.re ")") (str.to.re "*"))) (re.++ (re.+ (re.* (str.to.re "+++"))) (re.++ (re.union (re.+ (str.to.re ",")) (re.+ (str.to.re "--"))) (re.++ (re.union (re.* (str.to.re ".")) (re.* (str.to.re "//"))) (re.++ (re.union (re.+ (str.to.re "::")) (re.+ (str.to.re ";;;"))) (re.++ (re.+ (re.+ (str.to.re "<<<"))) (re.++ (re.union (re.* (str.to.re "=")) (re.* (str.to.re ">"))) (re.++ (re.union (re.* (str.to.re "?")) (re.* (str.to.re "@@"))) (re.++ (re.union (re.union (str.to.re "[[") (str.to.re "\\\\\\")) (re.union (str.to.re "]") (str.to.re "^^^"))) (re.++ (re.* (re.+ (str.to.re "__"))) (re.++ (re.union (re.+ (str.to.re "``")) (re.+ (str.to.re "{{{"))) (re.++ (re.+ (re.+ (str.to.re "|"))) (re.++ (re.+ (re.union (str.to.re "}}}") (str.to.re "~"))) (re.++ (re.union (re.* (str.to.re "0")) (re.* (str.to.re "111"))) (re.++ (re.* (re.union (str.to.re "222") (str.to.re "3"))) (re.++ (re.union (re.* (str.to.re "444")) (re.* (str.to.re "55"))) (re.++ (re.union (re.+ (str.to.re "666")) (re.+ (str.to.re "777"))) (re.union (re.union (str.to.re "88") (str.to.re "9")) (re.union (str.to.re "a") (str.to.re "bbb"))))))))))))))))))))))))))))))))))))))))))))))))))))))))))))))))))))))))))))))))))))))))))))))))))))))))))))))
(check-sat)